NAME : tsp45_6.216.tour
COMMENT : Length = 216
COMMENT : Found by LKH [Keld Helsgaun]
TYPE : TOUR
DIMENSION : 45
TOUR_SECTION
1
9
16
17
39
25
35
33
5
14
18
10
42
41
27
34
24
6
30
2
44
29
38
15
26
45
13
32
20
4
21
8
37
11
36
43
7
22
3
12
40
23
19
28
31
-1
EOF
